clingo version 5.6.2
Reading from ...etition/0034-graph_colouring-140-0.asp ...
Solving...
UNSATISFIABLE

Models       : 0
Calls        : 1
Time         : 33.468s (Solving: 33.25s 1st Model: 0.00s Unsat: 33.25s)
CPU Time     : 33.449s

Choices      : 1080674 
Conflicts    : 1002832  (Analyzed: 1002831)
Restarts     : 2557     (Average: 392.19 Last: 6866)
Problems     : 1        (Average Length: 0.00 Splits: 0)
Lemmas       : 1002831  (Deleted: 963759)
  Binary     : 329      (Ratio:   0.03%)
  Ternary    : 2063     (Ratio:   0.21%)
  Conflict   : 1002831  (Average Length:   25.3 Ratio: 100.00%) 
  Loop       : 0        (Average Length:    0.0 Ratio:   0.00%) 
  Other      : 0        (Average Length:    0.0 Ratio:   0.00%) 
Backjumps    : 1002831  (Average:  1.06 Max:   8 Sum: 1067286)
  Executed   : 1002831  (Average:  1.06 Max:   8 Sum: 1067286 Ratio: 100.00%)
  Bounded    : 0        (Average:  0.00 Max:   0 Sum:      0 Ratio:   0.00%)

Rules        : 20110   
Atoms        : 3662    
Bodies       : 1380    
Equivalences : 2729     (Atom=Atom: 17 Body=Body: 676 Other: 2036)
Tight        : Yes
Variables    : 819      (Eliminated:    0 Frozen:    0)
Constraints  : 8026     (Binary:  89.9% Ternary:   0.0% Other:  10.1%)

